instances/knapsack/discrete_knapsack_uncertainty/knapsack_110_8.lp
\ Model knapsack_110_8
\ LP format - for model browsing. Use MPS format to capture full model detail.
\ Signature: 0x1c7a262dccd0e095
Minimize
  - x[0] - 6 x[1] - 15 x[2] - 27 x[3] - 61 x[4] - 12 x[5] - 73 x[6]
   - 83 x[7] - 70 x[8] - 58 x[9] - 74 x[10] - 94 x[11] - 46 x[12]
   - 33 x[13] - 90 x[14] - 47 x[15] - 73 x[16] - 9 x[17] - 54 x[18]
   - 45 x[19] - 89 x[20] - 62 x[21] - 19 x[22] - 27 x[23] - 36 x[24]
   - 2 x[25] - 7 x[26] - 39 x[27] - 65 x[28] - 92 x[29] - 88 x[30]
   - 63 x[31] - 75 x[32] - 10 x[33] - 11 x[34] - 20 x[35] - 56 x[36]
   - 10 x[37] - 50 x[38] - 7 x[39] - 95 x[40] - 37 x[41] - 37 x[42]
   - 82 x[43] - 78 x[44] - 18 x[45] - 96 x[46] - 24 x[47] - 48 x[48]
   - 53 x[49] - 62 x[50] - 70 x[51] - 10 x[52] - 40 x[53] - 47 x[54]
   - 9 x[55] - 74 x[56] - 39 x[57] - 99 x[58] - 50 x[59] - 79 x[60]
   - 17 x[61] - 97 x[62] - 33 x[63] - 14 x[64] - 4 x[65] - 52 x[66]
   - 81 x[67] - 88 x[68] - 85 x[69] - 48 x[70] - 26 x[71] - 20 x[72]
   - 65 x[73] - 82 x[74] - 93 x[75] - 21 x[76] - 92 x[77] - 47 x[78]
   - 83 x[79] - 2 x[80] - 93 x[81] - 29 x[82] - 81 x[83] - 88 x[84]
   - 36 x[85] - 65 x[86] - 94 x[87] - 79 x[88] - 86 x[89] - 33 x[90]
   - 85 x[91] - 53 x[92] - 72 x[93] - 83 x[94] - 62 x[95] - 44 x[96]
   - 91 x[97] - 72 x[98] - 76 x[99] - 64 x[100] - 33 x[101] - 62 x[102]
   - 9 x[103] - 30 x[104] - 18 x[105] - 73 x[106] - 52 x[107] - 41 x[108]
   - 76 x[109]
Subject To
 primal_upper: 79 x[0] + 75 x[1] + x[2] + 62 x[3] + 19 x[4] + 61 x[5]
   + 84 x[6] + 55 x[7] + 96 x[8] + 85 x[9] + 11 x[10] + 42 x[11] + 27 x[12]
   + 63 x[13] + 92 x[14] + 72 x[15] + 24 x[16] + 15 x[17] + 64 x[18]
   + 57 x[19] + 28 x[20] + 71 x[21] + 67 x[22] + 94 x[23] + 28 x[24]
   + 59 x[25] + 33 x[26] + 39 x[27] + 33 x[28] + 6 x[29] + 73 x[30]
   + 79 x[31] + 91 x[32] + 8 x[33] + 87 x[34] + 36 x[35] + 95 x[36]
   + 16 x[37] + 75 x[38] + 74 x[39] + 38 x[40] + 49 x[41] + 21 x[42]
   + 29 x[43] + 46 x[44] + 14 x[45] + 45 x[46] + 5 x[47] + 46 x[48]
   + 95 x[49] + 82 x[50] + 87 x[51] + 100 x[52] + 95 x[53] + 40 x[54]
   + 47 x[55] + 40 x[56] + 2 x[57] + 75 x[58] + 33 x[59] + 24 x[60]
   + 46 x[61] + 7 x[62] + 98 x[63] + 95 x[64] + 19 x[65] + 4 x[66]
   + 58 x[67] + 91 x[68] + 29 x[69] + 65 x[70] + 45 x[71] + 41 x[72]
   + 34 x[73] + 27 x[74] + 96 x[75] + 26 x[76] + 82 x[77] + 60 x[78]
   + 58 x[79] + 77 x[80] + 13 x[81] + 54 x[82] + 33 x[83] + 49 x[84]
   + 17 x[85] + 3 x[86] + 31 x[87] + 37 x[88] + 78 x[89] + 20 x[90]
   + 8 x[91] + 80 x[92] + 3 x[93] + 99 x[94] + 72 x[95] + 28 x[96]
   + 56 x[97] + 7 x[98] + 31 x[99] + 56 x[100] + 55 x[101] + 53 x[102]
   + 59 x[103] + 40 x[104] + 81 x[105] + 38 x[106] + 22 x[107] + 90 x[108]
   + 60 x[109] + 7.9 r[0] + 7.5 r[1] + 0.1 r[2] + 6.2 r[3] + 1.9 r[4]
   + 6.1 r[5] + 8.4 r[6] + 5.5 r[7] + 9.6 r[8] + 8.5 r[9] + 1.1 r[10]
   + 4.2 r[11] + 2.7 r[12] + 6.3 r[13] + 9.2 r[14] + 7.2 r[15] + 2.4 r[16]
   + 1.5 r[17] + 6.4 r[18] + 5.7 r[19] + 2.8 r[20] + 7.1 r[21] + 6.7 r[22]
   + 9.4 r[23] + 2.8 r[24] + 5.9 r[25] + 3.3 r[26] + 3.9 r[27] + 3.3 r[28]
   + 0.6 r[29] + 7.3 r[30] + 7.9 r[31] + 9.1 r[32] + 0.8 r[33] + 8.7 r[34]
   + 3.6 r[35] + 9.5 r[36] + 1.6 r[37] + 7.5 r[38] + 7.4 r[39] + 3.8 r[40]
   + 4.9 r[41] + 2.1 r[42] + 2.9 r[43] + 4.6 r[44] + 1.4 r[45] + 4.5 r[46]
   + 0.5 r[47] + 4.6 r[48] + 9.5 r[49] + 8.2 r[50] + 8.7 r[51] + 10 r[52]
   + 9.5 r[53] + 4 r[54] + 4.7 r[55] + 4 r[56] + 0.2 r[57] + 7.5 r[58]
   + 3.3 r[59] + 2.4 r[60] + 4.6 r[61] + 0.7 r[62] + 9.8 r[63] + 9.5 r[64]
   + 1.9 r[65] + 0.4 r[66] + 5.8 r[67] + 9.1 r[68] + 2.9 r[69] + 6.5 r[70]
   + 4.5 r[71] + 4.1 r[72] + 3.4 r[73] + 2.7 r[74] + 9.6 r[75] + 2.6 r[76]
   + 8.2 r[77] + 6 r[78] + 5.8 r[79] + 7.7 r[80] + 1.3 r[81] + 5.4 r[82]
   + 3.3 r[83] + 4.9 r[84] + 1.7 r[85] + 0.3 r[86] + 3.1 r[87] + 3.7 r[88]
   + 7.8 r[89] + 2 r[90] + 0.8 r[91] + 8 r[92] + 0.3 r[93] + 9.9 r[94]
   + 7.2 r[95] + 2.8 r[96] + 5.6 r[97] + 0.7 r[98] + 3.1 r[99] + 5.6 r[100]
   + 5.5 r[101] + 5.3 r[102] + 5.9 r[103] + 4 r[104] + 8.1 r[105]
   + 3.8 r[106] + 2.2 r[107] + 9 r[108] + 6 r[109] <= 525
 primal_lower: 3.903980205523589 x[0] + 1.152792804145685 x[1]
   + 4.268945223010224 x[2] + 2.850917480013391 x[3]
   + 3.649850904652605 x[4] + 1.297374825068831 x[5]
   + 2.577143076102909 x[6] + 2.411923262740181 x[7]
   + 0.4133603149102881 x[8] + 3.147644623372269 x[9]
   + 2.825329335776013 x[10] + 0.439123450608685 x[11]
   + 3.913972951676575 x[12] + 2.33579191861836 x[13]
   + 1.302087886660043 x[14] + 0.6733999530311158 x[15]
   + 4.287505786328586 x[16] + 1.068480072704918 x[17]
   + 0.8281005158965989 x[18] + 4.196888585281789 x[19]
   + 4.066473534854026 x[20] + 1.205383720847202 x[21]
   + 4.25567130777071 x[22] + 2.850046719507395 x[23]
   + 4.680963632346606 x[24] + 2.197052698760778 x[25]
   + 3.457601966091322 x[26] + 4.725563578965403 x[27]
   + 3.78319654399897 x[28] + 4.171150426788016 x[29]
   + 1.826020360923235 x[30] + 2.653144880157797 x[31]
   + 1.196289167494237 x[32] + 2.043750058988433 x[33]
   + 4.773186204646704 x[34] + 1.845612643672455 x[35]
   + 1.116804990980247 x[36] + 3.295970819148523 x[37]
   + 0.6838522845379954 x[38] + 1.211005788891607 x[39]
   + 4.592880314101859 x[40] + 0.8509968159824439 x[41]
   + 1.354572275939463 x[42] + 1.260118741520132 x[43]
   + 2.013956624927055 x[44] + 1.207074554499069 x[45]
   + 1.683488601313186 x[46] + 1.752017093116398 x[47]
   + 4.430593818733503 x[48] + 3.313172193213909 x[49]
   + 3.339808270203156 x[50] + 0.2155133473246348 x[51]
   + 1.318551362629467 x[52] + 2.799997320501142 x[53]
   + 0.9726460660943173 x[54] + 3.992353068321896 x[55]
   + 0.9032286271765666 x[56] + 0.373589350765757 x[57]
   + 4.684081025258109 x[58] + 2.764681037842815 x[59]
   + 0.9957535662246102 x[60] + 1.925216151215324 x[61]
   + 3.679899079214253 x[62] + 4.176528661832336 x[63]
   + 3.48384488954946 x[64] + 1.642176512706716 x[65]
   + 4.400692370041768 x[66] + 1.08386839436176 x[67]
   + 4.480097035354271 x[68] + 4.386710163907559 x[69]
   + 1.140527596572851 x[70] + 4.755312003386381 x[71]
   + 2.658275165998617 x[72] + 0.2670382635784403 x[73]
   + 2.973654051273587 x[74] + 2.250377311306889 x[75]
   + 4.399949243469212 x[76] + 2.761496738073168 x[77]
   + 1.850583330580212 x[78] + 0.7430062276084138 x[79]
   + 2.363827135223753 x[80] + 3.334296501931671 x[81]
   + 4.552116537595766 x[82] + 3.682990339137006 x[83]
   + 4.144992635118127 x[84] + 3.89052194061554 x[85]
   + 3.761285526313663 x[86] + 1.600383681700162 x[87]
   + 1.394229030145533 x[88] + 1.076762972564114 x[89]
   + 3.435618405663572 x[90] + 2.555572406884973 x[91]
   + 3.151071148384452 x[92] + 1.603030071617124 x[93]
   + 2.460557348907238 x[94] + 0.894568102190174 x[95]
   + 2.799562333265188 x[96] + 1.833894857269175 x[97]
   + 3.685701184798019 x[98] + 2.146402467038986 x[99]
   + 0.9708127742403997 x[100] + 0.7579910988966611 x[101]
   + 1.110484140010745 x[102] + 3.595186177848833 x[103]
   + 2.597661337146824 x[104] + 0.1275742800098827 x[105]
   + 3.474390810682859 x[106] + 4.194096986226425 x[107]
   + 2.95840007292894 x[108] + 3.804303388013019 x[109] + 29 u[0] + 41 u[1]
   + 19 u[2] + 76 u[3] + 81 u[4] + 47 u[5] + 86 u[6] + 97 u[7] + 38 u[8]
   + 47 u[9] + 41 u[10] + 20 u[11] + 25 u[12] + 97 u[13] + 22 u[14]
   + 78 u[15] + 54 u[16] + 21 u[17] + 38 u[18] + 79 u[19] + 98 u[20]
   + 9 u[21] + 5 u[22] + 92 u[23] + 54 u[24] + 17 u[25] + 55 u[26] + u[27]
   + 63 u[28] + 92 u[29] + 27 u[30] + 25 u[31] + 89 u[32] + 74 u[33]
   + 37 u[34] + 18 u[35] + 85 u[36] + 70 u[37] + 97 u[38] + 44 u[39]
   + 12 u[40] + 51 u[41] + 3 u[42] + 47 u[43] + 12 u[44] + 20 u[45]
   + 55 u[46] + 23 u[47] + 88 u[48] + 53 u[49] + 92 u[50] + 57 u[51]
   + 98 u[52] + 65 u[53] + 78 u[54] + 93 u[55] + 30 u[56] + 60 u[57]
   + 57 u[58] + 31 u[59] + 58 u[60] + 56 u[61] + 81 u[62] + 8 u[63]
   + 9 u[64] + 53 u[65] + 38 u[66] + 64 u[67] + u[68] + 63 u[69] + 27 u[70]
   + 51 u[71] + 15 u[72] + 84 u[73] + 69 u[74] + 6 u[75] + 56 u[76]
   + 24 u[77] + 62 u[78] + 20 u[79] + 99 u[80] + 71 u[81] + 60 u[82]
   + 51 u[83] + 67 u[84] + 7 u[85] + 65 u[86] + 33 u[87] + 11 u[88]
   + 48 u[89] + 94 u[90] + 94 u[91] + 42 u[92] + 61 u[93] + 5 u[94]
   + 98 u[95] + 70 u[96] + 82 u[97] + 33 u[98] + 61 u[99] + 6 u[100]
   + u[101] + 91 u[102] + 17 u[103] + 98 u[104] + 15 u[105] + 84 u[106]
   + 60 u[107] + 8 u[108] + 66 u[109] <= 57436
 mccormick1[0]: - u[0] + r[0] <= 0
 mccormick1[1]: - u[1] + r[1] <= 0
 mccormick1[2]: - u[2] + r[2] <= 0
 mccormick1[3]: - u[3] + r[3] <= 0
 mccormick1[4]: - u[4] + r[4] <= 0
 mccormick1[5]: - u[5] + r[5] <= 0
 mccormick1[6]: - u[6] + r[6] <= 0
 mccormick1[7]: - u[7] + r[7] <= 0
 mccormick1[8]: - u[8] + r[8] <= 0
 mccormick1[9]: - u[9] + r[9] <= 0
 mccormick1[10]: - u[10] + r[10] <= 0
 mccormick1[11]: - u[11] + r[11] <= 0
 mccormick1[12]: - u[12] + r[12] <= 0
 mccormick1[13]: - u[13] + r[13] <= 0
 mccormick1[14]: - u[14] + r[14] <= 0
 mccormick1[15]: - u[15] + r[15] <= 0
 mccormick1[16]: - u[16] + r[16] <= 0
 mccormick1[17]: - u[17] + r[17] <= 0
 mccormick1[18]: - u[18] + r[18] <= 0
 mccormick1[19]: - u[19] + r[19] <= 0
 mccormick1[20]: - u[20] + r[20] <= 0
 mccormick1[21]: - u[21] + r[21] <= 0
 mccormick1[22]: - u[22] + r[22] <= 0
 mccormick1[23]: - u[23] + r[23] <= 0
 mccormick1[24]: - u[24] + r[24] <= 0
 mccormick1[25]: - u[25] + r[25] <= 0
 mccormick1[26]: - u[26] + r[26] <= 0
 mccormick1[27]: - u[27] + r[27] <= 0
 mccormick1[28]: - u[28] + r[28] <= 0
 mccormick1[29]: - u[29] + r[29] <= 0
 mccormick1[30]: - u[30] + r[30] <= 0
 mccormick1[31]: - u[31] + r[31] <= 0
 mccormick1[32]: - u[32] + r[32] <= 0
 mccormick1[33]: - u[33] + r[33] <= 0
 mccormick1[34]: - u[34] + r[34] <= 0
 mccormick1[35]: - u[35] + r[35] <= 0
 mccormick1[36]: - u[36] + r[36] <= 0
 mccormick1[37]: - u[37] + r[37] <= 0
 mccormick1[38]: - u[38] + r[38] <= 0
 mccormick1[39]: - u[39] + r[39] <= 0
 mccormick1[40]: - u[40] + r[40] <= 0
 mccormick1[41]: - u[41] + r[41] <= 0
 mccormick1[42]: - u[42] + r[42] <= 0
 mccormick1[43]: - u[43] + r[43] <= 0
 mccormick1[44]: - u[44] + r[44] <= 0
 mccormick1[45]: - u[45] + r[45] <= 0
 mccormick1[46]: - u[46] + r[46] <= 0
 mccormick1[47]: - u[47] + r[47] <= 0
 mccormick1[48]: - u[48] + r[48] <= 0
 mccormick1[49]: - u[49] + r[49] <= 0
 mccormick1[50]: - u[50] + r[50] <= 0
 mccormick1[51]: - u[51] + r[51] <= 0
 mccormick1[52]: - u[52] + r[52] <= 0
 mccormick1[53]: - u[53] + r[53] <= 0
 mccormick1[54]: - u[54] + r[54] <= 0
 mccormick1[55]: - u[55] + r[55] <= 0
 mccormick1[56]: - u[56] + r[56] <= 0
 mccormick1[57]: - u[57] + r[57] <= 0
 mccormick1[58]: - u[58] + r[58] <= 0
 mccormick1[59]: - u[59] + r[59] <= 0
 mccormick1[60]: - u[60] + r[60] <= 0
 mccormick1[61]: - u[61] + r[61] <= 0
 mccormick1[62]: - u[62] + r[62] <= 0
 mccormick1[63]: - u[63] + r[63] <= 0
 mccormick1[64]: - u[64] + r[64] <= 0
 mccormick1[65]: - u[65] + r[65] <= 0
 mccormick1[66]: - u[66] + r[66] <= 0
 mccormick1[67]: - u[67] + r[67] <= 0
 mccormick1[68]: - u[68] + r[68] <= 0
 mccormick1[69]: - u[69] + r[69] <= 0
 mccormick1[70]: - u[70] + r[70] <= 0
 mccormick1[71]: - u[71] + r[71] <= 0
 mccormick1[72]: - u[72] + r[72] <= 0
 mccormick1[73]: - u[73] + r[73] <= 0
 mccormick1[74]: - u[74] + r[74] <= 0
 mccormick1[75]: - u[75] + r[75] <= 0
 mccormick1[76]: - u[76] + r[76] <= 0
 mccormick1[77]: - u[77] + r[77] <= 0
 mccormick1[78]: - u[78] + r[78] <= 0
 mccormick1[79]: - u[79] + r[79] <= 0
 mccormick1[80]: - u[80] + r[80] <= 0
 mccormick1[81]: - u[81] + r[81] <= 0
 mccormick1[82]: - u[82] + r[82] <= 0
 mccormick1[83]: - u[83] + r[83] <= 0
 mccormick1[84]: - u[84] + r[84] <= 0
 mccormick1[85]: - u[85] + r[85] <= 0
 mccormick1[86]: - u[86] + r[86] <= 0
 mccormick1[87]: - u[87] + r[87] <= 0
 mccormick1[88]: - u[88] + r[88] <= 0
 mccormick1[89]: - u[89] + r[89] <= 0
 mccormick1[90]: - u[90] + r[90] <= 0
 mccormick1[91]: - u[91] + r[91] <= 0
 mccormick1[92]: - u[92] + r[92] <= 0
 mccormick1[93]: - u[93] + r[93] <= 0
 mccormick1[94]: - u[94] + r[94] <= 0
 mccormick1[95]: - u[95] + r[95] <= 0
 mccormick1[96]: - u[96] + r[96] <= 0
 mccormick1[97]: - u[97] + r[97] <= 0
 mccormick1[98]: - u[98] + r[98] <= 0
 mccormick1[99]: - u[99] + r[99] <= 0
 mccormick1[100]: - u[100] + r[100] <= 0
 mccormick1[101]: - u[101] + r[101] <= 0
 mccormick1[102]: - u[102] + r[102] <= 0
 mccormick1[103]: - u[103] + r[103] <= 0
 mccormick1[104]: - u[104] + r[104] <= 0
 mccormick1[105]: - u[105] + r[105] <= 0
 mccormick1[106]: - u[106] + r[106] <= 0
 mccormick1[107]: - u[107] + r[107] <= 0
 mccormick1[108]: - u[108] + r[108] <= 0
 mccormick1[109]: - u[109] + r[109] <= 0
 mccormick2[0]: - x[0] + r[0] <= 0
 mccormick2[1]: - x[1] + r[1] <= 0
 mccormick2[2]: - x[2] + r[2] <= 0
 mccormick2[3]: - x[3] + r[3] <= 0
 mccormick2[4]: - x[4] + r[4] <= 0
 mccormick2[5]: - x[5] + r[5] <= 0
 mccormick2[6]: - x[6] + r[6] <= 0
 mccormick2[7]: - x[7] + r[7] <= 0
 mccormick2[8]: - x[8] + r[8] <= 0
 mccormick2[9]: - x[9] + r[9] <= 0
 mccormick2[10]: - x[10] + r[10] <= 0
 mccormick2[11]: - x[11] + r[11] <= 0
 mccormick2[12]: - x[12] + r[12] <= 0
 mccormick2[13]: - x[13] + r[13] <= 0
 mccormick2[14]: - x[14] + r[14] <= 0
 mccormick2[15]: - x[15] + r[15] <= 0
 mccormick2[16]: - x[16] + r[16] <= 0
 mccormick2[17]: - x[17] + r[17] <= 0
 mccormick2[18]: - x[18] + r[18] <= 0
 mccormick2[19]: - x[19] + r[19] <= 0
 mccormick2[20]: - x[20] + r[20] <= 0
 mccormick2[21]: - x[21] + r[21] <= 0
 mccormick2[22]: - x[22] + r[22] <= 0
 mccormick2[23]: - x[23] + r[23] <= 0
 mccormick2[24]: - x[24] + r[24] <= 0
 mccormick2[25]: - x[25] + r[25] <= 0
 mccormick2[26]: - x[26] + r[26] <= 0
 mccormick2[27]: - x[27] + r[27] <= 0
 mccormick2[28]: - x[28] + r[28] <= 0
 mccormick2[29]: - x[29] + r[29] <= 0
 mccormick2[30]: - x[30] + r[30] <= 0
 mccormick2[31]: - x[31] + r[31] <= 0
 mccormick2[32]: - x[32] + r[32] <= 0
 mccormick2[33]: - x[33] + r[33] <= 0
 mccormick2[34]: - x[34] + r[34] <= 0
 mccormick2[35]: - x[35] + r[35] <= 0
 mccormick2[36]: - x[36] + r[36] <= 0
 mccormick2[37]: - x[37] + r[37] <= 0
 mccormick2[38]: - x[38] + r[38] <= 0
 mccormick2[39]: - x[39] + r[39] <= 0
 mccormick2[40]: - x[40] + r[40] <= 0
 mccormick2[41]: - x[41] + r[41] <= 0
 mccormick2[42]: - x[42] + r[42] <= 0
 mccormick2[43]: - x[43] + r[43] <= 0
 mccormick2[44]: - x[44] + r[44] <= 0
 mccormick2[45]: - x[45] + r[45] <= 0
 mccormick2[46]: - x[46] + r[46] <= 0
 mccormick2[47]: - x[47] + r[47] <= 0
 mccormick2[48]: - x[48] + r[48] <= 0
 mccormick2[49]: - x[49] + r[49] <= 0
 mccormick2[50]: - x[50] + r[50] <= 0
 mccormick2[51]: - x[51] + r[51] <= 0
 mccormick2[52]: - x[52] + r[52] <= 0
 mccormick2[53]: - x[53] + r[53] <= 0
 mccormick2[54]: - x[54] + r[54] <= 0
 mccormick2[55]: - x[55] + r[55] <= 0
 mccormick2[56]: - x[56] + r[56] <= 0
 mccormick2[57]: - x[57] + r[57] <= 0
 mccormick2[58]: - x[58] + r[58] <= 0
 mccormick2[59]: - x[59] + r[59] <= 0
 mccormick2[60]: - x[60] + r[60] <= 0
 mccormick2[61]: - x[61] + r[61] <= 0
 mccormick2[62]: - x[62] + r[62] <= 0
 mccormick2[63]: - x[63] + r[63] <= 0
 mccormick2[64]: - x[64] + r[64] <= 0
 mccormick2[65]: - x[65] + r[65] <= 0
 mccormick2[66]: - x[66] + r[66] <= 0
 mccormick2[67]: - x[67] + r[67] <= 0
 mccormick2[68]: - x[68] + r[68] <= 0
 mccormick2[69]: - x[69] + r[69] <= 0
 mccormick2[70]: - x[70] + r[70] <= 0
 mccormick2[71]: - x[71] + r[71] <= 0
 mccormick2[72]: - x[72] + r[72] <= 0
 mccormick2[73]: - x[73] + r[73] <= 0
 mccormick2[74]: - x[74] + r[74] <= 0
 mccormick2[75]: - x[75] + r[75] <= 0
 mccormick2[76]: - x[76] + r[76] <= 0
 mccormick2[77]: - x[77] + r[77] <= 0
 mccormick2[78]: - x[78] + r[78] <= 0
 mccormick2[79]: - x[79] + r[79] <= 0
 mccormick2[80]: - x[80] + r[80] <= 0
 mccormick2[81]: - x[81] + r[81] <= 0
 mccormick2[82]: - x[82] + r[82] <= 0
 mccormick2[83]: - x[83] + r[83] <= 0
 mccormick2[84]: - x[84] + r[84] <= 0
 mccormick2[85]: - x[85] + r[85] <= 0
 mccormick2[86]: - x[86] + r[86] <= 0
 mccormick2[87]: - x[87] + r[87] <= 0
 mccormick2[88]: - x[88] + r[88] <= 0
 mccormick2[89]: - x[89] + r[89] <= 0
 mccormick2[90]: - x[90] + r[90] <= 0
 mccormick2[91]: - x[91] + r[91] <= 0
 mccormick2[92]: - x[92] + r[92] <= 0
 mccormick2[93]: - x[93] + r[93] <= 0
 mccormick2[94]: - x[94] + r[94] <= 0
 mccormick2[95]: - x[95] + r[95] <= 0
 mccormick2[96]: - x[96] + r[96] <= 0
 mccormick2[97]: - x[97] + r[97] <= 0
 mccormick2[98]: - x[98] + r[98] <= 0
 mccormick2[99]: - x[99] + r[99] <= 0
 mccormick2[100]: - x[100] + r[100] <= 0
 mccormick2[101]: - x[101] + r[101] <= 0
 mccormick2[102]: - x[102] + r[102] <= 0
 mccormick2[103]: - x[103] + r[103] <= 0
 mccormick2[104]: - x[104] + r[104] <= 0
 mccormick2[105]: - x[105] + r[105] <= 0
 mccormick2[106]: - x[106] + r[106] <= 0
 mccormick2[107]: - x[107] + r[107] <= 0
 mccormick2[108]: - x[108] + r[108] <= 0
 mccormick2[109]: - x[109] + r[109] <= 0
 mccormick3[0]: x[0] + u[0] - r[0] <= 1
 mccormick3[1]: x[1] + u[1] - r[1] <= 1
 mccormick3[2]: x[2] + u[2] - r[2] <= 1
 mccormick3[3]: x[3] + u[3] - r[3] <= 1
 mccormick3[4]: x[4] + u[4] - r[4] <= 1
 mccormick3[5]: x[5] + u[5] - r[5] <= 1
 mccormick3[6]: x[6] + u[6] - r[6] <= 1
 mccormick3[7]: x[7] + u[7] - r[7] <= 1
 mccormick3[8]: x[8] + u[8] - r[8] <= 1
 mccormick3[9]: x[9] + u[9] - r[9] <= 1
 mccormick3[10]: x[10] + u[10] - r[10] <= 1
 mccormick3[11]: x[11] + u[11] - r[11] <= 1
 mccormick3[12]: x[12] + u[12] - r[12] <= 1
 mccormick3[13]: x[13] + u[13] - r[13] <= 1
 mccormick3[14]: x[14] + u[14] - r[14] <= 1
 mccormick3[15]: x[15] + u[15] - r[15] <= 1
 mccormick3[16]: x[16] + u[16] - r[16] <= 1
 mccormick3[17]: x[17] + u[17] - r[17] <= 1
 mccormick3[18]: x[18] + u[18] - r[18] <= 1
 mccormick3[19]: x[19] + u[19] - r[19] <= 1
 mccormick3[20]: x[20] + u[20] - r[20] <= 1
 mccormick3[21]: x[21] + u[21] - r[21] <= 1
 mccormick3[22]: x[22] + u[22] - r[22] <= 1
 mccormick3[23]: x[23] + u[23] - r[23] <= 1
 mccormick3[24]: x[24] + u[24] - r[24] <= 1
 mccormick3[25]: x[25] + u[25] - r[25] <= 1
 mccormick3[26]: x[26] + u[26] - r[26] <= 1
 mccormick3[27]: x[27] + u[27] - r[27] <= 1
 mccormick3[28]: x[28] + u[28] - r[28] <= 1
 mccormick3[29]: x[29] + u[29] - r[29] <= 1
 mccormick3[30]: x[30] + u[30] - r[30] <= 1
 mccormick3[31]: x[31] + u[31] - r[31] <= 1
 mccormick3[32]: x[32] + u[32] - r[32] <= 1
 mccormick3[33]: x[33] + u[33] - r[33] <= 1
 mccormick3[34]: x[34] + u[34] - r[34] <= 1
 mccormick3[35]: x[35] + u[35] - r[35] <= 1
 mccormick3[36]: x[36] + u[36] - r[36] <= 1
 mccormick3[37]: x[37] + u[37] - r[37] <= 1
 mccormick3[38]: x[38] + u[38] - r[38] <= 1
 mccormick3[39]: x[39] + u[39] - r[39] <= 1
 mccormick3[40]: x[40] + u[40] - r[40] <= 1
 mccormick3[41]: x[41] + u[41] - r[41] <= 1
 mccormick3[42]: x[42] + u[42] - r[42] <= 1
 mccormick3[43]: x[43] + u[43] - r[43] <= 1
 mccormick3[44]: x[44] + u[44] - r[44] <= 1
 mccormick3[45]: x[45] + u[45] - r[45] <= 1
 mccormick3[46]: x[46] + u[46] - r[46] <= 1
 mccormick3[47]: x[47] + u[47] - r[47] <= 1
 mccormick3[48]: x[48] + u[48] - r[48] <= 1
 mccormick3[49]: x[49] + u[49] - r[49] <= 1
 mccormick3[50]: x[50] + u[50] - r[50] <= 1
 mccormick3[51]: x[51] + u[51] - r[51] <= 1
 mccormick3[52]: x[52] + u[52] - r[52] <= 1
 mccormick3[53]: x[53] + u[53] - r[53] <= 1
 mccormick3[54]: x[54] + u[54] - r[54] <= 1
 mccormick3[55]: x[55] + u[55] - r[55] <= 1
 mccormick3[56]: x[56] + u[56] - r[56] <= 1
 mccormick3[57]: x[57] + u[57] - r[57] <= 1
 mccormick3[58]: x[58] + u[58] - r[58] <= 1
 mccormick3[59]: x[59] + u[59] - r[59] <= 1
 mccormick3[60]: x[60] + u[60] - r[60] <= 1
 mccormick3[61]: x[61] + u[61] - r[61] <= 1
 mccormick3[62]: x[62] + u[62] - r[62] <= 1
 mccormick3[63]: x[63] + u[63] - r[63] <= 1
 mccormick3[64]: x[64] + u[64] - r[64] <= 1
 mccormick3[65]: x[65] + u[65] - r[65] <= 1
 mccormick3[66]: x[66] + u[66] - r[66] <= 1
 mccormick3[67]: x[67] + u[67] - r[67] <= 1
 mccormick3[68]: x[68] + u[68] - r[68] <= 1
 mccormick3[69]: x[69] + u[69] - r[69] <= 1
 mccormick3[70]: x[70] + u[70] - r[70] <= 1
 mccormick3[71]: x[71] + u[71] - r[71] <= 1
 mccormick3[72]: x[72] + u[72] - r[72] <= 1
 mccormick3[73]: x[73] + u[73] - r[73] <= 1
 mccormick3[74]: x[74] + u[74] - r[74] <= 1
 mccormick3[75]: x[75] + u[75] - r[75] <= 1
 mccormick3[76]: x[76] + u[76] - r[76] <= 1
 mccormick3[77]: x[77] + u[77] - r[77] <= 1
 mccormick3[78]: x[78] + u[78] - r[78] <= 1
 mccormick3[79]: x[79] + u[79] - r[79] <= 1
 mccormick3[80]: x[80] + u[80] - r[80] <= 1
 mccormick3[81]: x[81] + u[81] - r[81] <= 1
 mccormick3[82]: x[82] + u[82] - r[82] <= 1
 mccormick3[83]: x[83] + u[83] - r[83] <= 1
 mccormick3[84]: x[84] + u[84] - r[84] <= 1
 mccormick3[85]: x[85] + u[85] - r[85] <= 1
 mccormick3[86]: x[86] + u[86] - r[86] <= 1
 mccormick3[87]: x[87] + u[87] - r[87] <= 1
 mccormick3[88]: x[88] + u[88] - r[88] <= 1
 mccormick3[89]: x[89] + u[89] - r[89] <= 1
 mccormick3[90]: x[90] + u[90] - r[90] <= 1
 mccormick3[91]: x[91] + u[91] - r[91] <= 1
 mccormick3[92]: x[92] + u[92] - r[92] <= 1
 mccormick3[93]: x[93] + u[93] - r[93] <= 1
 mccormick3[94]: x[94] + u[94] - r[94] <= 1
 mccormick3[95]: x[95] + u[95] - r[95] <= 1
 mccormick3[96]: x[96] + u[96] - r[96] <= 1
 mccormick3[97]: x[97] + u[97] - r[97] <= 1
 mccormick3[98]: x[98] + u[98] - r[98] <= 1
 mccormick3[99]: x[99] + u[99] - r[99] <= 1
 mccormick3[100]: x[100] + u[100] - r[100] <= 1
 mccormick3[101]: x[101] + u[101] - r[101] <= 1
 mccormick3[102]: x[102] + u[102] - r[102] <= 1
 mccormick3[103]: x[103] + u[103] - r[103] <= 1
 mccormick3[104]: x[104] + u[104] - r[104] <= 1
 mccormick3[105]: x[105] + u[105] - r[105] <= 1
 mccormick3[106]: x[106] + u[106] - r[106] <= 1
 mccormick3[107]: x[107] + u[107] - r[107] <= 1
 mccormick3[108]: x[108] + u[108] - r[108] <= 1
 mccormick3[109]: x[109] + u[109] - r[109] <= 1
Bounds
Binaries
 x[0] x[1] x[2] x[3] x[4] x[5] x[6] x[7] x[8] x[9] x[10] x[11] x[12] x[13]
 x[14] x[15] x[16] x[17] x[18] x[19] x[20] x[21] x[22] x[23] x[24] x[25]
 x[26] x[27] x[28] x[29] x[30] x[31] x[32] x[33] x[34] x[35] x[36] x[37]
 x[38] x[39] x[40] x[41] x[42] x[43] x[44] x[45] x[46] x[47] x[48] x[49]
 x[50] x[51] x[52] x[53] x[54] x[55] x[56] x[57] x[58] x[59] x[60] x[61]
 x[62] x[63] x[64] x[65] x[66] x[67] x[68] x[69] x[70] x[71] x[72] x[73]
 x[74] x[75] x[76] x[77] x[78] x[79] x[80] x[81] x[82] x[83] x[84] x[85]
 x[86] x[87] x[88] x[89] x[90] x[91] x[92] x[93] x[94] x[95] x[96] x[97]
 x[98] x[99] x[100] x[101] x[102] x[103] x[104] x[105] x[106] x[107] x[108]
 x[109] u[0] u[1] u[2] u[3] u[4] u[5] u[6] u[7] u[8] u[9] u[10] u[11] u[12]
 u[13] u[14] u[15] u[16] u[17] u[18] u[19] u[20] u[21] u[22] u[23] u[24]
 u[25] u[26] u[27] u[28] u[29] u[30] u[31] u[32] u[33] u[34] u[35] u[36]
 u[37] u[38] u[39] u[40] u[41] u[42] u[43] u[44] u[45] u[46] u[47] u[48]
 u[49] u[50] u[51] u[52] u[53] u[54] u[55] u[56] u[57] u[58] u[59] u[60]
 u[61] u[62] u[63] u[64] u[65] u[66] u[67] u[68] u[69] u[70] u[71] u[72]
 u[73] u[74] u[75] u[76] u[77] u[78] u[79] u[80] u[81] u[82] u[83] u[84]
 u[85] u[86] u[87] u[88] u[89] u[90] u[91] u[92] u[93] u[94] u[95] u[96]
 u[97] u[98] u[99] u[100] u[101] u[102] u[103] u[104] u[105] u[106] u[107]
 u[108] u[109] r[0] r[1] r[2] r[3] r[4] r[5] r[6] r[7] r[8] r[9] r[10]
 r[11] r[12] r[13] r[14] r[15] r[16] r[17] r[18] r[19] r[20] r[21] r[22]
 r[23] r[24] r[25] r[26] r[27] r[28] r[29] r[30] r[31] r[32] r[33] r[34]
 r[35] r[36] r[37] r[38] r[39] r[40] r[41] r[42] r[43] r[44] r[45] r[46]
 r[47] r[48] r[49] r[50] r[51] r[52] r[53] r[54] r[55] r[56] r[57] r[58]
 r[59] r[60] r[61] r[62] r[63] r[64] r[65] r[66] r[67] r[68] r[69] r[70]
 r[71] r[72] r[73] r[74] r[75] r[76] r[77] r[78] r[79] r[80] r[81] r[82]
 r[83] r[84] r[85] r[86] r[87] r[88] r[89] r[90] r[91] r[92] r[93] r[94]
 r[95] r[96] r[97] r[98] r[99] r[100] r[101] r[102] r[103] r[104] r[105]
 r[106] r[107] r[108] r[109]
End
