instances/knapsack/discrete_knapsack_uncertainty/knapsack_110_8.kp
36736
110
525

79 7.9 1
75 7.5 6
1 0.1 15
62 6.2 27
19 1.9 61
61 6.1 12
84 8.4 73
55 5.5 83
96 9.6 70
85 8.5 58
11 1.1 74
42 4.2 94
27 2.7 46
63 6.3 33
92 9.2 90
72 7.2 47
24 2.4 73
15 1.5 9
64 6.4 54
57 5.7 45
28 2.8 89
71 7.1 62
67 6.7 19
94 9.4 27
28 2.8 36
59 5.9 2
33 3.3 7
39 3.9 39
33 3.3 65
6 0.6 92
73 7.3 88
79 7.9 63
91 9.1 75
8 0.8 10
87 8.7 11
36 3.6 20
95 9.5 56
16 1.6 10
75 7.5 50
74 7.4 7
38 3.8 95
49 4.9 37
21 2.1 37
29 2.9 82
46 4.6 78
14 1.4 18
45 4.5 96
5 0.5 24
46 4.6 48
95 9.5 53
82 8.2 62
87 8.7 70
100 10.0 10
95 9.5 40
40 4.0 47
47 4.7 9
40 4.0 74
2 0.2 39
75 7.5 99
33 3.3 50
24 2.4 79
46 4.6 17
7 0.7 97
98 9.8 33
95 9.5 14
19 1.9 4
4 0.4 52
58 5.8 81
91 9.1 88
29 2.9 85
65 6.5 48
45 4.5 26
41 4.1 20
34 3.4 65
27 2.7 82
96 9.6 93
26 2.6 21
82 8.2 92
60 6.0 47
58 5.8 83
77 7.7 2
13 1.3 93
54 5.4 29
33 3.3 81
49 4.9 88
17 1.7 36
3 0.3 65
31 3.1 94
37 3.7 79
78 7.8 86
20 2.0 33
8 0.8 85
80 8.0 53
3 0.3 72
99 9.9 83
72 7.2 62
28 2.8 44
56 5.6 91
7 0.7 72
31 3.1 76
56 5.6 64
55 5.5 33
53 5.3 62
59 5.9 9
40 4.0 30
81 8.1 18
38 3.8 73
22 2.2 52
90 9.0 41
60 6.0 76

57436
529

[3.903980205523589 1.1527928041456852 4.268945223010224 2.850917480013391 3.6498509046526046 1.2973748250688313 2.5771430761029093 2.4119232627401814 0.41336031491028813 3.1476446233722686 2.825329335776013 0.43912345060868496 3.913972951676575 2.33579191861836 1.3020878866600427 0.6733999530311158 4.287505786328586 1.0684800727049184 0.8281005158965989 4.196888585281789 4.066473534854026 1.2053837208472022 4.25567130777071 2.8500467195073953 4.6809636323466055 2.197052698760778 3.4576019660913215 4.725563578965403 3.78319654399897 4.171150426788016 1.8260203609232355 2.653144880157797 1.196289167494237 2.043750058988433 4.773186204646704 1.8456126436724547 1.1168049909802469 3.2959708191485233 0.6838522845379954 1.2110057888916075 4.592880314101859 0.8509968159824439 1.3545722759394634 1.2601187415201323 2.0139566249270553 1.2070745544990693 1.6834886013131862 1.7520170931163976 4.430593818733503 3.3131721932139087 3.3398082702031555 0.21551334732463479 1.318551362629467 2.7999973205011424 0.9726460660943173 3.992353068321896 0.9032286271765666 0.373589350765757 4.684081025258109 2.7646810378428155 0.9957535662246102 1.9252161512153239 3.679899079214253 4.176528661832336 3.48384488954946 1.6421765127067165 4.400692370041768 1.0838683943617597 4.480097035354271 4.386710163907559 1.1405275965728512 4.755312003386381 2.6582751659986172 0.26703826357844035 2.9736540512735874 2.250377311306889 4.399949243469212 2.7614967380731676 1.850583330580212 0.7430062276084138 2.3638271352237528 3.334296501931671 4.552116537595766 3.682990339137006 4.144992635118127 3.89052194061554 3.761285526313663 1.6003836817001624 1.3942290301455327 1.0767629725641144 3.4356184056635724 2.555572406884973 3.1510711483844522 1.6030300716171237 2.4605573489072383 0.894568102190174 2.799562333265188 1.8338948572691753 3.6857011847980186 2.1464024670389863 0.9708127742403997 0.757991098896661 1.1104841400107455 3.5951861778488334 2.597661337146824 0.1275742800098827 3.4743908106828587 4.194096986226425 2.9584000729289404 3.804303388013019]

[29 41 19 76 81 47 86 97 38 47 41 20 25 97 22 78 54 21 38 79 98 9 5 92 54 17 55 1 63 92 27 25 89 74 37 18 85 70 97 44 12 51 3 47 12 20 55 23 88 53 92 57 98 65 78 93 30 60 57 31 58 56 81 8 9 53 38 64 1 63 27 51 15 84 69 6 56 24 62 20 99 71 60 51 67 7 65 33 11 48 94 94 42 61 5 98 70 82 33 61 6 1 91 17 98 15 84 60 8 66]
